\ SCIP STATISTICS
\   Problem name     : Max Flow
\   Variables        : 100 (0 binary, 0 integer, 0 implicit integer, 100 continuous)
\   Constraints      : 108
Maximize
 Obj: +1 x#0#0 +1 x#0#1 +1 x#0#2 +1 x#0#3 +1 x#0#4 +1 x#0#5 +1 x#0#6 +1 x#0#7 +1 x#0#8 +1 x#0#9 +1 x#1#0
      +1 x#1#1 +1 x#1#2 +1 x#1#3 +1 x#1#4 +1 x#1#5 +1 x#1#6 +1 x#1#7 +1 x#1#8 +1 x#1#9 +1 x#2#0 +1 x#2#1
      +1 x#2#2 +1 x#2#3 +1 x#2#4 +1 x#2#5 +1 x#2#6 +1 x#2#7 +1 x#2#8 +1 x#2#9 +1 x#3#0 +1 x#3#1 +1 x#3#2
      +1 x#3#3 +1 x#3#4 +1 x#3#5 +1 x#3#6 +1 x#3#7 +1 x#3#8 +1 x#3#9 +1 x#4#0 +1 x#4#1 +1 x#4#2 +1 x#4#3
      +1 x#4#4 +1 x#4#5 +1 x#4#6 +1 x#4#7 +1 x#4#8 +1 x#4#9 +1 x#5#0 +1 x#5#1 +1 x#5#2 +1 x#5#3 +1 x#5#4
      +1 x#5#5 +1 x#5#6 +1 x#5#7 +1 x#5#8 +1 x#5#9 +1 x#6#0 +1 x#6#1 +1 x#6#2 +1 x#6#3 +1 x#6#4 +1 x#6#5
      +1 x#6#6 +1 x#6#7 +1 x#6#8 +1 x#6#9 +1 x#7#0 +1 x#7#1 +1 x#7#2 +1 x#7#3 +1 x#7#4 +1 x#7#5 +1 x#7#6
      +1 x#7#7 +1 x#7#8 +1 x#7#9 +1 x#8#0 +1 x#8#1 +1 x#8#2 +1 x#8#3 +1 x#8#4 +1 x#8#5 +1 x#8#6 +1 x#8#7
      +1 x#8#8 +1 x#8#9 +1 x#9#0 +1 x#9#1 +1 x#9#2 +1 x#9#3 +1 x#9#4 +1 x#9#5 +1 x#9#6 +1 x#9#7 +1 x#9#8
      +1 x#9#9
Subject to
 flow_balance_1: +1 x#0#1 +1 x#2#1 +1 x#3#1 +1 x#4#1 +1 x#5#1 +1 x#6#1 +1 x#7#1 +1 x#8#1 +1 x#9#1 -1 x#1#0
  -1 x#1#2 -1 x#1#3 -1 x#1#4 -1 x#1#5 -1 x#1#6 -1 x#1#7 -1 x#1#8 -1 x#1#9 = +0
 flow_balance_2: +1 x#0#2 +1 x#1#2 +1 x#3#2 +1 x#4#2 +1 x#5#2 +1 x#6#2 +1 x#7#2 +1 x#8#2 +1 x#9#2 -1 x#2#0
  -1 x#2#1 -1 x#2#3 -1 x#2#4 -1 x#2#5 -1 x#2#6 -1 x#2#7 -1 x#2#8 -1 x#2#9 = +0
 flow_balance_3: +1 x#0#3 +1 x#1#3 +1 x#2#3 +1 x#4#3 +1 x#5#3 +1 x#6#3 +1 x#7#3 +1 x#8#3 +1 x#9#3 -1 x#3#0
  -1 x#3#1 -1 x#3#2 -1 x#3#4 -1 x#3#5 -1 x#3#6 -1 x#3#7 -1 x#3#8 -1 x#3#9 = +0
 flow_balance_4: +1 x#0#4 +1 x#1#4 +1 x#2#4 +1 x#3#4 +1 x#5#4 +1 x#6#4 +1 x#7#4 +1 x#8#4 +1 x#9#4 -1 x#4#0
  -1 x#4#1 -1 x#4#2 -1 x#4#3 -1 x#4#5 -1 x#4#6 -1 x#4#7 -1 x#4#8 -1 x#4#9 = +0
 flow_balance_5: +1 x#0#5 +1 x#1#5 +1 x#2#5 +1 x#3#5 +1 x#4#5 +1 x#6#5 +1 x#7#5 +1 x#8#5 +1 x#9#5 -1 x#5#0
  -1 x#5#1 -1 x#5#2 -1 x#5#3 -1 x#5#4 -1 x#5#6 -1 x#5#7 -1 x#5#8 -1 x#5#9 = +0
 flow_balance_6: +1 x#0#6 +1 x#1#6 +1 x#2#6 +1 x#3#6 +1 x#4#6 +1 x#5#6 +1 x#7#6 +1 x#8#6 +1 x#9#6 -1 x#6#0
  -1 x#6#1 -1 x#6#2 -1 x#6#3 -1 x#6#4 -1 x#6#5 -1 x#6#7 -1 x#6#8 -1 x#6#9 = +0
 flow_balance_7: +1 x#0#7 +1 x#1#7 +1 x#2#7 +1 x#3#7 +1 x#4#7 +1 x#5#7 +1 x#6#7 +1 x#8#7 +1 x#9#7 -1 x#7#0
  -1 x#7#1 -1 x#7#2 -1 x#7#3 -1 x#7#4 -1 x#7#5 -1 x#7#6 -1 x#7#8 -1 x#7#9 = +0
 flow_balance_8: +1 x#0#8 +1 x#1#8 +1 x#2#8 +1 x#3#8 +1 x#4#8 +1 x#5#8 +1 x#6#8 +1 x#7#8 +1 x#9#8 -1 x#8#0
  -1 x#8#1 -1 x#8#2 -1 x#8#3 -1 x#8#4 -1 x#8#5 -1 x#8#6 -1 x#8#7 -1 x#8#9 = +0
 capa_cons_0_0: +1 x#0#0 = +0
 capa_cons_0_1_lhs: +1 x#0#1 >= +0
 capa_cons_0_1_rhs: +1 x#0#1 <= +14
 capa_cons_0_2_lhs: +1 x#0#2 >= +0
 capa_cons_0_2_rhs: +1 x#0#2 <= +19
 capa_cons_0_3_lhs: +1 x#0#3 >= +0
 capa_cons_0_3_rhs: +1 x#0#3 <= +22
 capa_cons_0_4_lhs: +1 x#0#4 >= +0
 capa_cons_0_4_rhs: +1 x#0#4 <= +31
 capa_cons_0_5_lhs: +1 x#0#5 >= +0
 capa_cons_0_5_rhs: +1 x#0#5 <= +16
 capa_cons_0_6_lhs: +1 x#0#6 >= +0
 capa_cons_0_6_rhs: +1 x#0#6 <= +18
 capa_cons_0_7_lhs: +1 x#0#7 >= +0
 capa_cons_0_7_rhs: +1 x#0#7 <= +31
 capa_cons_0_8_lhs: +1 x#0#8 >= +0
 capa_cons_0_8_rhs: +1 x#0#8 <= +3
 capa_cons_0_9_lhs: +1 x#0#9 >= +0
 capa_cons_0_9_rhs: +1 x#0#9 <= +16
 capa_cons_1_0_lhs: +1 x#1#0 >= +0
 capa_cons_1_0_rhs: +1 x#1#0 <= +14
 capa_cons_1_1: +1 x#1#1 = +0
 capa_cons_1_2_lhs: +1 x#1#2 >= +0
 capa_cons_1_2_rhs: +1 x#1#2 <= +19
 capa_cons_1_3_lhs: +1 x#1#3 >= +0
 capa_cons_1_3_rhs: +1 x#1#3 <= +11
 capa_cons_1_4_lhs: +1 x#1#4 >= +0
 capa_cons_1_4_rhs: +1 x#1#4 <= +9
 capa_cons_1_5_lhs: +1 x#1#5 >= +0
 capa_cons_1_5_rhs: +1 x#1#5 <= +33
 capa_cons_1_6_lhs: +1 x#1#6 >= +0
 capa_cons_1_6_rhs: +1 x#1#6 <= +13
 capa_cons_1_7_lhs: +1 x#1#7 >= +0
 capa_cons_1_7_rhs: +1 x#1#7 <= +22
 capa_cons_1_8_lhs: +1 x#1#8 >= +0
 capa_cons_1_8_rhs: +1 x#1#8 <= +26
 capa_cons_1_9_lhs: +1 x#1#9 >= +0
 capa_cons_1_9_rhs: +1 x#1#9 <= +5
 capa_cons_2_0_lhs: +1 x#2#0 >= +0
 capa_cons_2_0_rhs: +1 x#2#0 <= +19
 capa_cons_2_1_lhs: +1 x#2#1 >= +0
 capa_cons_2_1_rhs: +1 x#2#1 <= +19
 capa_cons_2_2: +1 x#2#2 = +0
 capa_cons_2_3_lhs: +1 x#2#3 >= +0
 capa_cons_2_3_rhs: +1 x#2#3 <= +11
 capa_cons_2_4_lhs: +1 x#2#4 >= +0
 capa_cons_2_4_rhs: +1 x#2#4 <= +35
 capa_cons_2_5_lhs: +1 x#2#5 >= +0
 capa_cons_2_5_rhs: +1 x#2#5 <= +28
 capa_cons_2_6_lhs: +1 x#2#6 >= +0
 capa_cons_2_6_rhs: +1 x#2#6 <= +30
 capa_cons_2_7_lhs: +1 x#2#7 >= +0
 capa_cons_2_7_rhs: +1 x#2#7 <= +19
 capa_cons_2_8_lhs: +1 x#2#8 >= +0
 capa_cons_2_8_rhs: +1 x#2#8 <= +4
 capa_cons_2_9_lhs: +1 x#2#9 >= +0
 capa_cons_2_9_rhs: +1 x#2#9 <= +3
 capa_cons_3_0_lhs: +1 x#3#0 >= +0
 capa_cons_3_0_rhs: +1 x#3#0 <= +22
 capa_cons_3_1_lhs: +1 x#3#1 >= +0
 capa_cons_3_1_rhs: +1 x#3#1 <= +11
 capa_cons_3_2_lhs: +1 x#3#2 >= +0
 capa_cons_3_2_rhs: +1 x#3#2 <= +11
 capa_cons_3_3: +1 x#3#3 = +0
 capa_cons_3_4_lhs: +1 x#3#4 >= +0
 capa_cons_3_4_rhs: +1 x#3#4 <= +13
 capa_cons_3_5_lhs: +1 x#3#5 >= +0
 capa_cons_3_5_rhs: +1 x#3#5 <= +33
 capa_cons_3_6_lhs: +1 x#3#6 >= +0
 capa_cons_3_6_rhs: +1 x#3#6 <= +33
 capa_cons_3_7_lhs: +1 x#3#7 >= +0
 capa_cons_3_7_rhs: +1 x#3#7 <= +3
 capa_cons_3_8_lhs: +1 x#3#8 >= +0
 capa_cons_3_8_rhs: +1 x#3#8 <= +10
 capa_cons_3_9_lhs: +1 x#3#9 >= +0
 capa_cons_3_9_rhs: +1 x#3#9 <= +16
 capa_cons_4_0_lhs: +1 x#4#0 >= +0
 capa_cons_4_0_rhs: +1 x#4#0 <= +31
 capa_cons_4_1_lhs: +1 x#4#1 >= +0
 capa_cons_4_1_rhs: +1 x#4#1 <= +9
 capa_cons_4_2_lhs: +1 x#4#2 >= +0
 capa_cons_4_2_rhs: +1 x#4#2 <= +35
 capa_cons_4_3_lhs: +1 x#4#3 >= +0
 capa_cons_4_3_rhs: +1 x#4#3 <= +13
 capa_cons_4_4: +1 x#4#4 = +0
 capa_cons_4_5_lhs: +1 x#4#5 >= +0
 capa_cons_4_5_rhs: +1 x#4#5 <= +3
 capa_cons_4_6_lhs: +1 x#4#6 >= +0
 capa_cons_4_6_rhs: +1 x#4#6 <= +24
 capa_cons_4_7_lhs: +1 x#4#7 >= +0
 capa_cons_4_7_rhs: +1 x#4#7 <= +34
 capa_cons_4_8_lhs: +1 x#4#8 >= +0
 capa_cons_4_8_rhs: +1 x#4#8 <= +24
 capa_cons_4_9_lhs: +1 x#4#9 >= +0
 capa_cons_4_9_rhs: +1 x#4#9 <= +34
 capa_cons_5_0_lhs: +1 x#5#0 >= +0
 capa_cons_5_0_rhs: +1 x#5#0 <= +16
 capa_cons_5_1_lhs: +1 x#5#1 >= +0
 capa_cons_5_1_rhs: +1 x#5#1 <= +33
 capa_cons_5_2_lhs: +1 x#5#2 >= +0
 capa_cons_5_2_rhs: +1 x#5#2 <= +28
 capa_cons_5_3_lhs: +1 x#5#3 >= +0
 capa_cons_5_3_rhs: +1 x#5#3 <= +33
 capa_cons_5_4_lhs: +1 x#5#4 >= +0
 capa_cons_5_4_rhs: +1 x#5#4 <= +3
 capa_cons_5_5: +1 x#5#5 = +0
 capa_cons_5_6_lhs: +1 x#5#6 >= +0
 capa_cons_5_6_rhs: +1 x#5#6 <= +13
 capa_cons_5_7_lhs: +1 x#5#7 >= +0
 capa_cons_5_7_rhs: +1 x#5#7 <= +21
 capa_cons_5_8_lhs: +1 x#5#8 >= +0
 capa_cons_5_8_rhs: +1 x#5#8 <= +28
 capa_cons_5_9_lhs: +1 x#5#9 >= +0
 capa_cons_5_9_rhs: +1 x#5#9 <= +31
 capa_cons_6_0_lhs: +1 x#6#0 >= +0
 capa_cons_6_0_rhs: +1 x#6#0 <= +18
 capa_cons_6_1_lhs: +1 x#6#1 >= +0
 capa_cons_6_1_rhs: +1 x#6#1 <= +13
 capa_cons_6_2_lhs: +1 x#6#2 >= +0
 capa_cons_6_2_rhs: +1 x#6#2 <= +30
 capa_cons_6_3_lhs: +1 x#6#3 >= +0
 capa_cons_6_3_rhs: +1 x#6#3 <= +33
 capa_cons_6_4_lhs: +1 x#6#4 >= +0
 capa_cons_6_4_rhs: +1 x#6#4 <= +24
 capa_cons_6_5_lhs: +1 x#6#5 >= +0
 capa_cons_6_5_rhs: +1 x#6#5 <= +13
 capa_cons_6_6: +1 x#6#6 = +0
 capa_cons_6_7_lhs: +1 x#6#7 >= +0
 capa_cons_6_7_rhs: +1 x#6#7 <= +16
 capa_cons_6_8_lhs: +1 x#6#8 >= +0
 capa_cons_6_8_rhs: +1 x#6#8 <= +27
 capa_cons_6_9_lhs: +1 x#6#9 >= +0
 capa_cons_6_9_rhs: +1 x#6#9 <= +6
 capa_cons_7_0_lhs: +1 x#7#0 >= +0
 capa_cons_7_0_rhs: +1 x#7#0 <= +31
 capa_cons_7_1_lhs: +1 x#7#1 >= +0
 capa_cons_7_1_rhs: +1 x#7#1 <= +22
 capa_cons_7_2_lhs: +1 x#7#2 >= +0
 capa_cons_7_2_rhs: +1 x#7#2 <= +19
 capa_cons_7_3_lhs: +1 x#7#3 >= +0
 capa_cons_7_3_rhs: +1 x#7#3 <= +3
 capa_cons_7_4_lhs: +1 x#7#4 >= +0
 capa_cons_7_4_rhs: +1 x#7#4 <= +34
 capa_cons_7_5_lhs: +1 x#7#5 >= +0
 capa_cons_7_5_rhs: +1 x#7#5 <= +21
 capa_cons_7_6_lhs: +1 x#7#6 >= +0
 capa_cons_7_6_rhs: +1 x#7#6 <= +16
 capa_cons_7_7: +1 x#7#7 = +0
 capa_cons_7_8_lhs: +1 x#7#8 >= +0
 capa_cons_7_8_rhs: +1 x#7#8 <= +24
 capa_cons_7_9_lhs: +1 x#7#9 >= +0
 capa_cons_7_9_rhs: +1 x#7#9 <= +23
 capa_cons_8_0_lhs: +1 x#8#0 >= +0
 capa_cons_8_0_rhs: +1 x#8#0 <= +3
 capa_cons_8_1_lhs: +1 x#8#1 >= +0
 capa_cons_8_1_rhs: +1 x#8#1 <= +26
 capa_cons_8_2_lhs: +1 x#8#2 >= +0
 capa_cons_8_2_rhs: +1 x#8#2 <= +4
 capa_cons_8_3_lhs: +1 x#8#3 >= +0
 capa_cons_8_3_rhs: +1 x#8#3 <= +10
 capa_cons_8_4_lhs: +1 x#8#4 >= +0
 capa_cons_8_4_rhs: +1 x#8#4 <= +24
 capa_cons_8_5_lhs: +1 x#8#5 >= +0
 capa_cons_8_5_rhs: +1 x#8#5 <= +28
 capa_cons_8_6_lhs: +1 x#8#6 >= +0
 capa_cons_8_6_rhs: +1 x#8#6 <= +27
 capa_cons_8_7_lhs: +1 x#8#7 >= +0
 capa_cons_8_7_rhs: +1 x#8#7 <= +24
 capa_cons_8_8: +1 x#8#8 = +0
 capa_cons_8_9_lhs: +1 x#8#9 >= +0
 capa_cons_8_9_rhs: +1 x#8#9 <= +18
 capa_cons_9_0_lhs: +1 x#9#0 >= +0
 capa_cons_9_0_rhs: +1 x#9#0 <= +16
 capa_cons_9_1_lhs: +1 x#9#1 >= +0
 capa_cons_9_1_rhs: +1 x#9#1 <= +5
 capa_cons_9_2_lhs: +1 x#9#2 >= +0
 capa_cons_9_2_rhs: +1 x#9#2 <= +3
 capa_cons_9_3_lhs: +1 x#9#3 >= +0
 capa_cons_9_3_rhs: +1 x#9#3 <= +16
 capa_cons_9_4_lhs: +1 x#9#4 >= +0
 capa_cons_9_4_rhs: +1 x#9#4 <= +34
 capa_cons_9_5_lhs: +1 x#9#5 >= +0
 capa_cons_9_5_rhs: +1 x#9#5 <= +31
 capa_cons_9_6_lhs: +1 x#9#6 >= +0
 capa_cons_9_6_rhs: +1 x#9#6 <= +6
 capa_cons_9_7_lhs: +1 x#9#7 >= +0
 capa_cons_9_7_rhs: +1 x#9#7 <= +23
 capa_cons_9_8_lhs: +1 x#9#8 >= +0
 capa_cons_9_8_rhs: +1 x#9#8 <= +18
 capa_cons_9_9: +1 x#9#9 = +0
Bounds
 0 <= x#0#0 <= 2147483647
 0 <= x#0#1 <= 2147483647
 0 <= x#0#2 <= 2147483647
 0 <= x#0#3 <= 2147483647
 0 <= x#0#4 <= 2147483647
 0 <= x#0#5 <= 2147483647
 0 <= x#0#6 <= 2147483647
 0 <= x#0#7 <= 2147483647
 0 <= x#0#8 <= 2147483647
 0 <= x#0#9 <= 2147483647
 0 <= x#1#0 <= 2147483647
 0 <= x#1#1 <= 2147483647
 0 <= x#1#2 <= 2147483647
 0 <= x#1#3 <= 2147483647
 0 <= x#1#4 <= 2147483647
 0 <= x#1#5 <= 2147483647
 0 <= x#1#6 <= 2147483647
 0 <= x#1#7 <= 2147483647
 0 <= x#1#8 <= 2147483647
 0 <= x#1#9 <= 2147483647
 0 <= x#2#0 <= 2147483647
 0 <= x#2#1 <= 2147483647
 0 <= x#2#2 <= 2147483647
 0 <= x#2#3 <= 2147483647
 0 <= x#2#4 <= 2147483647
 0 <= x#2#5 <= 2147483647
 0 <= x#2#6 <= 2147483647
 0 <= x#2#7 <= 2147483647
 0 <= x#2#8 <= 2147483647
 0 <= x#2#9 <= 2147483647
 0 <= x#3#0 <= 2147483647
 0 <= x#3#1 <= 2147483647
 0 <= x#3#2 <= 2147483647
 0 <= x#3#3 <= 2147483647
 0 <= x#3#4 <= 2147483647
 0 <= x#3#5 <= 2147483647
 0 <= x#3#6 <= 2147483647
 0 <= x#3#7 <= 2147483647
 0 <= x#3#8 <= 2147483647
 0 <= x#3#9 <= 2147483647
 0 <= x#4#0 <= 2147483647
 0 <= x#4#1 <= 2147483647
 0 <= x#4#2 <= 2147483647
 0 <= x#4#3 <= 2147483647
 0 <= x#4#4 <= 2147483647
 0 <= x#4#5 <= 2147483647
 0 <= x#4#6 <= 2147483647
 0 <= x#4#7 <= 2147483647
 0 <= x#4#8 <= 2147483647
 0 <= x#4#9 <= 2147483647
 0 <= x#5#0 <= 2147483647
 0 <= x#5#1 <= 2147483647
 0 <= x#5#2 <= 2147483647
 0 <= x#5#3 <= 2147483647
 0 <= x#5#4 <= 2147483647
 0 <= x#5#5 <= 2147483647
 0 <= x#5#6 <= 2147483647
 0 <= x#5#7 <= 2147483647
 0 <= x#5#8 <= 2147483647
 0 <= x#5#9 <= 2147483647
 0 <= x#6#0 <= 2147483647
 0 <= x#6#1 <= 2147483647
 0 <= x#6#2 <= 2147483647
 0 <= x#6#3 <= 2147483647
 0 <= x#6#4 <= 2147483647
 0 <= x#6#5 <= 2147483647
 0 <= x#6#6 <= 2147483647
 0 <= x#6#7 <= 2147483647
 0 <= x#6#8 <= 2147483647
 0 <= x#6#9 <= 2147483647
 0 <= x#7#0 <= 2147483647
 0 <= x#7#1 <= 2147483647
 0 <= x#7#2 <= 2147483647
 0 <= x#7#3 <= 2147483647
 0 <= x#7#4 <= 2147483647
 0 <= x#7#5 <= 2147483647
 0 <= x#7#6 <= 2147483647
 0 <= x#7#7 <= 2147483647
 0 <= x#7#8 <= 2147483647
 0 <= x#7#9 <= 2147483647
 0 <= x#8#0 <= 2147483647
 0 <= x#8#1 <= 2147483647
 0 <= x#8#2 <= 2147483647
 0 <= x#8#3 <= 2147483647
 0 <= x#8#4 <= 2147483647
 0 <= x#8#5 <= 2147483647
 0 <= x#8#6 <= 2147483647
 0 <= x#8#7 <= 2147483647
 0 <= x#8#8 <= 2147483647
 0 <= x#8#9 <= 2147483647
 0 <= x#9#0 <= 2147483647
 0 <= x#9#1 <= 2147483647
 0 <= x#9#2 <= 2147483647
 0 <= x#9#3 <= 2147483647
 0 <= x#9#4 <= 2147483647
 0 <= x#9#5 <= 2147483647
 0 <= x#9#6 <= 2147483647
 0 <= x#9#7 <= 2147483647
 0 <= x#9#8 <= 2147483647
 0 <= x#9#9 <= 2147483647
End
